;test regex ^([0]\d|[1][0-2]\/([0-2]\d|[3][0-1])\/([2][0]\d{2})\s([0-1]\d|[2][0-3])\:[0-5]\d\:[0-5]\d)?\s(AM|am|aM|Am|PM|pm|pM|Pm)
(declare-const X String)
(assert (str.in_re X (re.++ (str.to_re "") (re.++ (re.opt (re.union (re.++ (str.to_re "0") (re.range "0" "9")) (re.++ (str.to_re "1") (re.++ (re.range "0" "2") (re.++ (str.to_re "/") (re.++ (re.union (re.++ (re.range "0" "2") (re.range "0" "9")) (re.++ (str.to_re "3") (re.range "0" "1"))) (re.++ (str.to_re "/") (re.++ (re.++ (str.to_re "2") (re.++ (str.to_re "0") ((_ re.loop 2 2) (re.range "0" "9")))) (re.++ (re.union (str.to_re " ") (re.union (str.to_re "\u{0b}") (re.union (str.to_re "\u{0a}") (re.union (str.to_re "\u{0d}") (re.union (str.to_re "\u{09}") (str.to_re "\u{0c}")))))) (re.++ (re.union (re.++ (re.range "0" "1") (re.range "0" "9")) (re.++ (str.to_re "2") (re.range "0" "3"))) (re.++ (str.to_re ":") (re.++ (re.range "0" "5") (re.++ (re.range "0" "9") (re.++ (str.to_re ":") (re.++ (re.range "0" "5") (re.range "0" "9")))))))))))))))) (re.++ (re.union (str.to_re " ") (re.union (str.to_re "\u{0b}") (re.union (str.to_re "\u{0a}") (re.union (str.to_re "\u{0d}") (re.union (str.to_re "\u{09}") (str.to_re "\u{0c}")))))) (re.union (re.union (re.union (re.union (re.union (re.union (re.union (re.++ (str.to_re "A") (str.to_re "M")) (re.++ (str.to_re "a") (str.to_re "m"))) (re.++ (str.to_re "a") (str.to_re "M"))) (re.++ (str.to_re "A") (str.to_re "m"))) (re.++ (str.to_re "P") (str.to_re "M"))) (re.++ (str.to_re "p") (str.to_re "m"))) (re.++ (str.to_re "p") (str.to_re "M"))) (re.++ (str.to_re "P") (str.to_re "m"))))))))
; sanitize danger characters:  < > ' " &
(assert (not (str.in_re X (re.++ re.all (re.union (str.to_re "\u{3c}") (str.to_re "\u{3e}") (str.to_re "\u{27}") (str.to_re "\u{22}") (str.to_re "\u{26}")) re.all))))
(assert (< 20 (str.len X)))
(check-sat)
(get-model)